NAME : CMT14
COMMENT : 866.37
TYPE : CVRP
DIMENSION : 101
EDGE_WEIGHT_TYPE : EUC_2D
CAPACITY : 200
DISTANCE : 1040.00000
SERVICE_TIME : 90
NODE_COORD_SECTION
1 40.00000 50.00000
2 45.00000 68.00000
3 45.00000 70.00000
4 42.00000 66.00000
5 42.00000 68.00000
6 42.00000 65.00000
7 40.00000 69.00000
8 40.00000 66.00000
9 38.00000 68.00000
10 38.00000 70.00000
11 35.00000 66.00000
12 35.00000 69.00000
13 25.00000 85.00000
14 22.00000 75.00000
15 22.00000 85.00000
16 20.00000 80.00000
17 20.00000 85.00000
18 18.00000 75.00000
19 15.00000 75.00000
20 15.00000 80.00000
21 30.00000 50.00000
22 30.00000 52.00000
23 28.00000 52.00000
24 28.00000 55.00000
25 25.00000 50.00000
26 25.00000 52.00000
27 25.00000 55.00000
28 23.00000 52.00000
29 23.00000 55.00000
30 20.00000 50.00000
31 20.00000 55.00000
32 10.00000 35.00000
33 10.00000 40.00000
34 8.00000 40.00000
35 8.00000 45.00000
36 5.00000 35.00000
37 5.00000 45.00000
38 2.00000 40.00000
39 0.00000 40.00000
40 0.00000 45.00000
41 35.00000 30.00000
42 35.00000 32.00000
43 33.00000 32.00000
44 33.00000 35.00000
45 32.00000 30.00000
46 30.00000 30.00000
47 30.00000 32.00000
48 30.00000 35.00000
49 28.00000 30.00000
50 28.00000 35.00000
51 26.00000 32.00000
52 25.00000 30.00000
53 25.00000 35.00000
54 44.00000 5.00000
55 42.00000 10.00000
56 42.00000 15.00000
57 40.00000 5.00000
58 40.00000 15.00000
59 38.00000 5.00000
60 38.00000 15.00000
61 35.00000 5.00000
62 50.00000 30.00000
63 50.00000 35.00000
64 50.00000 40.00000
65 48.00000 30.00000
66 48.00000 40.00000
67 47.00000 35.00000
68 47.00000 40.00000
69 45.00000 30.00000
70 45.00000 35.00000
71 95.00000 30.00000
72 95.00000 35.00000
73 53.00000 30.00000
74 92.00000 30.00000
75 53.00000 35.00000
76 45.00000 65.00000
77 90.00000 35.00000
78 88.00000 30.00000
79 88.00000 35.00000
80 87.00000 30.00000
81 85.00000 25.00000
82 85.00000 35.00000
83 75.00000 55.00000
84 72.00000 55.00000
85 70.00000 58.00000
86 68.00000 60.00000
87 66.00000 55.00000
88 65.00000 55.00000
89 65.00000 60.00000
90 63.00000 58.00000
91 60.00000 55.00000
92 60.00000 60.00000
93 67.00000 85.00000
94 65.00000 85.00000
95 65.00000 82.00000
96 62.00000 80.00000
97 60.00000 80.00000
98 60.00000 85.00000
99 58.00000 75.00000
100 55.00000 80.00000
101 55.00000 85.00000
DEMAND_SECTION
1 0
2 10
3 30
4 10
5 10
6 10
7 20
8 20
9 20
10 10
11 10
12 10
13 20
14 30
15 10
16 40
17 40
18 20
19 20
20 10
21 10
22 20
23 20
24 10
25 10
26 40
27 10
28 10
29 20
30 10
31 10
32 20
33 30
34 40
35 20
36 10
37 10
38 20
39 30
40 20
41 10
42 10
43 20
44 10
45 10
46 10
47 30
48 10
49 10
50 10
51 10
52 10
53 10
54 20
55 40
56 10
57 30
58 40
59 30
60 10
61 20
62 10
63 20
64 50
65 10
66 10
67 10
68 10
69 10
70 10
71 30
72 20
73 10
74 10
75 50
76 20
77 10
78 10
79 20
80 10
81 10
82 30
83 20
84 10
85 20
86 30
87 10
88 20
89 30
90 10
91 10
92 10
93 20
94 40
95 10
96 30
97 10
98 30
99 20
100 10
101 20
DEPOT_SECTION
1
-1
EOF
